certificates/rado_a13_c218_N32.cnf
c Rad2 upper bound instance: x1 + 13*x2 - x3 = 218, interval [1,32]
p cnf 32 158
1 4 17 0
-1 -4 -17 0
1 17 18 0
-1 -17 -18 0
1 19 30 0
-1 -19 -30 0
2 5 17 0
-2 -5 -17 0
2 18 0
-2 -18 0
2 19 31 0
-2 -19 -31 0
3 6 17 0
-3 -6 -17 0
3 18 19 0
-3 -18 -19 0
3 19 32 0
-3 -19 -32 0
4 7 17 0
-4 -7 -17 0
4 18 20 0
-4 -18 -20 0
5 8 17 0
-5 -8 -17 0
5 18 21 0
-5 -18 -21 0
6 9 17 0
-6 -9 -17 0
6 18 22 0
-6 -18 -22 0
7 10 17 0
-7 -10 -17 0
7 18 23 0
-7 -18 -23 0
8 11 17 0
-8 -11 -17 0
8 18 24 0
-8 -18 -24 0
9 12 17 0
-9 -12 -17 0
9 18 25 0
-9 -18 -25 0
10 13 17 0
-10 -13 -17 0
10 18 26 0
-10 -18 -26 0
1 11 16 0
-1 -11 -16 0
11 14 17 0
-11 -14 -17 0
11 18 27 0
-11 -18 -27 0
2 12 16 0
-2 -12 -16 0
12 15 17 0
-12 -15 -17 0
12 18 28 0
-12 -18 -28 0
3 13 16 0
-3 -13 -16 0
13 16 17 0
-13 -16 -17 0
13 18 29 0
-13 -18 -29 0
4 14 16 0
-4 -14 -16 0
14 17 0
-14 -17 0
14 18 30 0
-14 -18 -30 0
5 15 16 0
-5 -15 -16 0
15 17 18 0
-15 -17 -18 0
15 18 31 0
-15 -18 -31 0
6 16 0
-6 -16 0
16 17 19 0
-16 -17 -19 0
16 18 32 0
-16 -18 -32 0
7 16 17 0
-7 -16 -17 0
17 20 0
-17 -20 0
8 16 18 0
-8 -16 -18 0
17 18 21 0
-17 -18 -21 0
9 16 19 0
-9 -16 -19 0
17 19 22 0
-17 -19 -22 0
10 16 20 0
-10 -16 -20 0
17 20 23 0
-17 -20 -23 0
11 16 21 0
-11 -16 -21 0
17 21 24 0
-17 -21 -24 0
12 16 22 0
-12 -16 -22 0
17 22 25 0
-17 -22 -25 0
13 16 23 0
-13 -16 -23 0
17 23 26 0
-17 -23 -26 0
1 15 24 0
-1 -15 -24 0
14 16 24 0
-14 -16 -24 0
17 24 27 0
-17 -24 -27 0
2 15 25 0
-2 -15 -25 0
15 16 25 0
-15 -16 -25 0
17 25 28 0
-17 -25 -28 0
3 15 26 0
-3 -15 -26 0
16 26 0
-16 -26 0
17 26 29 0
-17 -26 -29 0
4 15 27 0
-4 -15 -27 0
16 17 27 0
-16 -17 -27 0
17 27 30 0
-17 -27 -30 0
5 15 28 0
-5 -15 -28 0
16 18 28 0
-16 -18 -28 0
17 28 31 0
-17 -28 -31 0
6 15 29 0
-6 -15 -29 0
16 19 29 0
-16 -19 -29 0
17 29 32 0
-17 -29 -32 0
7 15 30 0
-7 -15 -30 0
16 20 30 0
-16 -20 -30 0
8 15 31 0
-8 -15 -31 0
16 21 31 0
-16 -21 -31 0
9 15 32 0
-9 -15 -32 0
16 22 32 0
-16 -22 -32 0
