certificates/rado_a13_c218_N32.drat
17 -30 -31 0
-19 -17 -32 0
-17 -32 0
d -29 -17 -32 0
19 -32 0
-31 -32 0
-18 -32 0
-32 0
18 -20 0
17 0
-14 0
-20 0
-18 0
2 0
16 0
30 0
4 0
-5 0
-12 0
-13 0
-6 0
-19 0
-7 0
-26 0
-27 0
-1 0
21 0
28 0
29 0
22 0
3 0
23 0
10 0
11 0
-24 0
-31 0
0
